data;
param nombreJob := 3;
param nombreRessource := 3;
param duree := 1 5 2 9 3 5;
param capaciteRessource := 1 6 2 15 3 20;
param besoinRessource : 1 2 3 :=
                    1   1 8 5
                    2   2 4 8
                    3   4 4 6;
end;

